id: 1315
name: sct1
group: miplib2010
method: 2

Gurobi 7.0.2 (linux64, Matlab) logging started Mon Mar 26 10:23:10 2018


Gurobi 7.0.2 (linux64) logging started Mon Mar 26 10:23:10 2018

Optimize a model with 12154 rows, 22886 columns and 105571 nonzeros
Coefficient statistics:
  Matrix range     [2e-06, 6e+04]
  Objective range  [5e-03, 1e+03]
  Bounds range     [1e+00, 1e+00]
  RHS range        [1e-01, 5e+04]
Presolve removed 3080 rows and 8470 columns
Presolve time: 0.03s
Presolved: 9074 rows, 14416 columns, 86228 nonzeros

Ordering time: 0.36s

Barrier statistics:
 Dense cols : 1
 AA' NZ     : 1.953e+05
 Factor NZ  : 6.422e+05 (roughly 15 MBytes of memory)
 Factor Ops : 2.232e+08 (less than 1 second per iteration)
 Threads    : 4

                  Objective                Residual
Iter       Primal          Dual         Primal    Dual     Compl     Time
   0   6.58381707e+04 -5.57009255e+04  1.84e+05 5.39e+00  3.64e+02     0s
   1   4.61850077e+04 -6.05397900e+04  7.63e+04 5.44e+00  1.56e+02     0s
   2   4.26796411e+04 -4.65766495e+04  4.46e+04 2.38e+00  1.11e+02     1s
   3   2.58441521e+04 -4.65801967e+04  6.35e+03 1.27e+00  2.22e+01     1s
   4   8.55535436e+03 -3.82355932e+04  6.29e+02 4.17e-01  3.34e+00     1s
   5   3.06052160e+03 -8.44739613e+03  9.25e+01 3.45e-03  4.69e-01     1s
   6   4.93434606e+02 -2.48955227e+03  1.52e+01 5.06e-04  1.01e-01     1s
   7   2.67715657e+02 -1.53582092e+03  9.75e+00 2.59e-04  5.91e-02     1s
   8   8.40596668e+01 -1.24476224e+03  5.42e+00 1.95e-04  4.16e-02     1s
   9   4.65036394e+01 -1.17064135e+03  4.60e+00 1.78e-04  3.77e-02     1s
  10  -2.96952055e+01 -8.42581623e+02  2.80e+00 1.09e-04  2.45e-02     1s
  11  -5.76030132e+01 -6.63046729e+02  2.21e+00 7.21e-05  1.81e-02     1s
  12  -1.06230022e+02 -5.11105217e+02  1.20e+00 3.98e-05  1.19e-02     1s
  13  -1.42158364e+02 -4.28533661e+02  4.76e-01 2.48e-05  8.26e-03     1s
  14  -1.64644326e+02 -3.92860548e+02  1.15e-01 1.80e-05  6.52e-03     1s
  15  -1.69742886e+02 -3.61684492e+02  9.28e-02 1.14e-05  5.47e-03     1s
  16  -1.75396835e+02 -3.47405108e+02  7.34e-02 7.94e-06  4.89e-03     1s
  17  -1.82484980e+02 -3.01250241e+02  5.68e-02 3.20e-06  3.37e-03     1s
  18  -1.85069165e+02 -2.84729439e+02  5.16e-02 2.39e-06  2.83e-03     1s
  19  -1.88882526e+02 -2.74236893e+02  4.35e-02 1.81e-06  2.42e-03     1s
  20  -1.94503146e+02 -2.66212841e+02  3.39e-02 1.43e-06  2.03e-03     1s
  21  -1.96806983e+02 -2.63383566e+02  3.02e-02 1.29e-06  1.88e-03     1s
  22  -2.01652916e+02 -2.58623459e+02  2.05e-02 1.05e-06  1.61e-03     1s
  23  -2.04469623e+02 -2.45335752e+02  1.62e-02 4.83e-07  1.15e-03     1s
  24  -2.07102006e+02 -2.39276852e+02  1.25e-02 2.66e-07  9.05e-04     1s
  25  -2.10078369e+02 -2.34544660e+02  8.80e-03 1.21e-07  6.87e-04     1s
  26  -2.10598482e+02 -2.30463875e+02  6.38e-03 4.05e-07  5.57e-04     1s
  27  -2.11826925e+02 -2.26269397e+02  5.09e-03 2.37e-07  4.05e-04     1s
  28  -2.12014001e+02 -2.25197376e+02  4.91e-03 1.99e-07  3.70e-04     1s
  29  -2.12467884e+02 -2.24923784e+02  4.49e-03 1.89e-07  3.49e-04     1s
  30  -2.14269061e+02 -2.24240896e+02  2.92e-03 1.52e-07  2.79e-04     1s
  31  -2.14254105e+02 -2.23199149e+02  2.84e-03 1.18e-07  2.51e-04     1s
  32  -2.15190028e+02 -2.21397790e+02  2.12e-03 5.07e-08  1.74e-04     1s
  33  -2.15669798e+02 -2.20831590e+02  1.71e-03 3.43e-08  1.45e-04     1s
  34  -2.15888869e+02 -2.20617404e+02  1.53e-03 3.08e-08  1.32e-04     1s
  35  -2.16285336e+02 -2.19966379e+02  1.24e-03 1.34e-08  1.03e-04     1s
  36  -2.16779361e+02 -2.19531338e+02  8.72e-04 3.27e-09  7.70e-05     1s
  37  -2.16942662e+02 -2.19216032e+02  7.50e-04 7.11e-15  6.36e-05     1s
  38  -2.17243810e+02 -2.19008039e+02  5.42e-04 2.13e-14  4.93e-05     1s
  39  -2.17395008e+02 -2.18791016e+02  4.45e-04 7.11e-15  3.90e-05     1s
  40  -2.17630546e+02 -2.18506163e+02  2.98e-04 3.55e-15  2.45e-05     1s
  41  -2.17795545e+02 -2.18392843e+02  1.98e-04 7.11e-15  1.67e-05     1s
  42  -2.17846489e+02 -2.18349982e+02  1.67e-04 1.78e-14  1.41e-05     1s
  43  -2.17871157e+02 -2.18306227e+02  1.52e-04 7.11e-15  1.22e-05     1s
  44  -2.17915019e+02 -2.18240761e+02  1.26e-04 1.42e-14  9.11e-06     1s
  45  -2.17983032e+02 -2.18204964e+02  8.65e-05 7.11e-15  6.21e-06     1s
  46  -2.18022808e+02 -2.18184437e+02  6.34e-05 3.55e-15  4.52e-06     1s
  47  -2.18049806e+02 -2.18175170e+02  4.79e-05 3.55e-15  3.51e-06     1s
  48  -2.18069962e+02 -2.18159821e+02  3.75e-05 7.11e-15  2.51e-06     1s
  49  -2.18104380e+02 -2.18146675e+02  1.84e-05 7.11e-15  1.18e-06     1s
  50  -2.18125215e+02 -2.18141914e+02  7.09e-06 7.11e-15  4.67e-07     1s
  51  -2.18127192e+02 -2.18141737e+02  6.05e-06 1.07e-14  4.07e-07     1s
  52  -2.18136273e+02 -2.18139418e+02  1.32e-06 7.11e-15  8.80e-08     1s
  53  -2.18138883e+02 -2.18139051e+02  2.08e-08 2.13e-14  4.69e-09     1s
  54  -2.18139003e+02 -2.18139009e+02  1.74e-09 7.11e-15  1.74e-10     1s
  55  -2.18139003e+02 -2.18139003e+02  1.13e-10 1.78e-14  4.21e-12     1s

Barrier solved model in 55 iterations and 1.26 seconds
Optimal objective -2.18139003e+02

Crossover log...

       0 DPushes remaining with DInf 8.6399481e-13                 1s

    3451 PPushes remaining with PInf 0.0000000e+00                 1s
       0 PPushes remaining with PInf 0.0000000e+00                 1s

  Push phase complete: Pinf 0.0000000e+00, Dinf 1.4146060e-13      1s

Iteration    Objective       Primal Inf.    Dual Inf.      Time
    3488   -2.1813900e+02   0.000000e+00   0.000000e+00      1s
    3488   -2.1813900e+02   0.000000e+00   0.000000e+00      1s

Solved in 3488 iterations and 1.34 seconds
Optimal objective -2.181390031e+02
status: OPTIMAL
